(set-logic ALL)
(declare-const lines String)
(declare-const results String)
(assert (< 0 (str.len lines)))
(assert (not (str.contains (str.at lines 0) "AA distances")))
(assert (not (str.contains (str.at lines 0) "ML distances of aa seqs.")))
(assert (< 1 (str.len lines)))
(assert (not (str.contains (str.at lines 1) "AA distances")))
(assert (not (str.contains (str.at lines 1) "ML distances of aa seqs.")))
(assert (< 2 (str.len lines)))
(assert (not (str.contains (str.at lines 2) "AA distances")))
(assert (not (str.contains (str.at lines 2) "ML distances of aa seqs.")))
(assert (< 3 (str.len lines)))
(assert (not (str.contains (str.at lines 3) "AA distances")))
(assert (not (str.contains (str.at lines 3) "ML distances of aa seqs.")))
(assert (< 4 (str.len lines)))
(assert (not (str.contains (str.at lines 4) "AA distances")))
(assert (not (str.contains (str.at lines 4) "ML distances of aa seqs.")))
(assert (< 5 (str.len lines)))
(assert (not (str.contains (str.at lines 5) "AA distances")))
(assert (not (str.contains (str.at lines 5) "ML distances of aa seqs.")))
(assert (< 6 (str.len lines)))
(assert (not (str.contains (str.at lines 6) "AA distances")))
(assert (not (str.contains (str.at lines 6) "ML distances of aa seqs.")))
(assert (< 7 (str.len lines)))
(assert (not (str.contains (str.at lines 7) "AA distances")))
(assert (not (str.contains (str.at lines 7) "ML distances of aa seqs.")))
(assert (< 8 (str.len lines)))
(assert (not (str.contains (str.at lines 8) "AA distances")))
(assert (not (str.contains (str.at lines 8) "ML distances of aa seqs.")))
(assert (< 9 (str.len lines)))
(assert (not (str.contains (str.at lines 9) "AA distances")))
(assert (not (str.contains (str.at lines 9) "ML distances of aa seqs.")))
(assert (< 10 (str.len lines)))
(assert (not (str.contains (str.at lines 10) "AA distances")))
(assert (not (str.contains (str.at lines 10) "ML distances of aa seqs.")))
(assert (< 11 (str.len lines)))
(assert (not (str.contains (str.at lines 11) "AA distances")))
(assert (not (str.contains (str.at lines 11) "ML distances of aa seqs.")))
(assert (< 12 (str.len lines)))
(assert (not (str.contains (str.at lines 12) "AA distances")))
(assert (not (str.contains (str.at lines 12) "ML distances of aa seqs.")))
(assert (< 13 (str.len lines)))
(assert (not (str.contains (str.at lines 13) "AA distances")))
(assert (not (str.contains (str.at lines 13) "ML distances of aa seqs.")))
(assert (< 14 (str.len lines)))
(assert (not (str.contains (str.at lines 14) "AA distances")))
(assert (not (str.contains (str.at lines 14) "ML distances of aa seqs.")))
(assert (< 15 (str.len lines)))
(assert (not (str.contains (str.at lines 15) "AA distances")))
(assert (not (str.contains (str.at lines 15) "ML distances of aa seqs.")))
(assert (< 16 (str.len lines)))
(assert (not (str.contains (str.at lines 16) "AA distances")))
(assert (not (str.contains (str.at lines 16) "ML distances of aa seqs.")))
(assert (< 17 (str.len lines)))
(assert (not (str.contains (str.at lines 17) "AA distances")))
(assert (not (str.contains (str.at lines 17) "ML distances of aa seqs.")))
(assert (< 18 (str.len lines)))
(assert (not (str.contains (str.at lines 18) "AA distances")))
(assert (not (str.contains (str.at lines 18) "ML distances of aa seqs.")))
(assert (< 19 (str.len lines)))
(assert (not (str.contains (str.at lines 19) "AA distances")))
(assert (not (str.contains (str.at lines 19) "ML distances of aa seqs.")))
(assert (< 20 (str.len lines)))
(assert (not (str.contains (str.at lines 20) "AA distances")))
(assert (not (str.contains (str.at lines 20) "ML distances of aa seqs.")))
(assert (< 21 (str.len lines)))
(assert (not (str.contains (str.at lines 21) "AA distances")))
(assert (not (str.contains (str.at lines 21) "ML distances of aa seqs.")))
(assert (< 22 (str.len lines)))
(assert (not (str.contains (str.at lines 22) "AA distances")))
(assert (not (str.contains (str.at lines 22) "ML distances of aa seqs.")))
(assert (< 23 (str.len lines)))
(assert (not (str.contains (str.at lines 23) "AA distances")))
(assert (not (str.contains (str.at lines 23) "ML distances of aa seqs.")))
(assert (< 24 (str.len lines)))
(assert (not (str.contains (str.at lines 24) "AA distances")))
(assert (not (str.contains (str.at lines 24) "ML distances of aa seqs.")))
(assert (< 25 (str.len lines)))
(assert (not (str.contains (str.at lines 25) "AA distances")))
(assert (not (str.contains (str.at lines 25) "ML distances of aa seqs.")))
(assert (< 26 (str.len lines)))
(assert (not (str.contains (str.at lines 26) "AA distances")))
(assert (not (str.contains (str.at lines 26) "ML distances of aa seqs.")))
(assert (< 27 (str.len lines)))
(assert (not (str.contains (str.at lines 27) "AA distances")))
(assert (not (str.contains (str.at lines 27) "ML distances of aa seqs.")))
(assert (< 28 (str.len lines)))
(assert (not (str.contains (str.at lines 28) "AA distances")))
(assert (not (str.contains (str.at lines 28) "ML distances of aa seqs.")))
(assert (< 29 (str.len lines)))
(assert (not (str.contains (str.at lines 29) "AA distances")))
(assert (not (str.contains (str.at lines 29) "ML distances of aa seqs.")))
(assert (< 30 (str.len lines)))
(assert (not (str.contains (str.at lines 30) "AA distances")))
(assert (not (str.contains (str.at lines 30) "ML distances of aa seqs.")))
(assert (< 31 (str.len lines)))
(assert (not (str.contains (str.at lines 31) "AA distances")))
(assert (not (str.contains (str.at lines 31) "ML distances of aa seqs.")))
(assert (< 32 (str.len lines)))
(assert (not (str.contains (str.at lines 32) "AA distances")))
(assert (not (str.contains (str.at lines 32) "ML distances of aa seqs.")))
(assert (< 33 (str.len lines)))
(assert (not (str.contains (str.at lines 33) "AA distances")))
(assert (not (str.contains (str.at lines 33) "ML distances of aa seqs.")))
(assert (< 34 (str.len lines)))
(assert (not (str.contains (str.at lines 34) "AA distances")))
(assert (not (str.contains (str.at lines 34) "ML distances of aa seqs.")))
(assert (< 35 (str.len lines)))
(assert (not (str.contains (str.at lines 35) "AA distances")))
(assert (not (str.contains (str.at lines 35) "ML distances of aa seqs.")))
(assert (< 36 (str.len lines)))
(assert (not (str.contains (str.at lines 36) "AA distances")))
(assert (not (str.contains (str.at lines 36) "ML distances of aa seqs.")))
(assert (< 37 (str.len lines)))
(assert (not (str.contains (str.at lines 37) "AA distances")))
(assert (not (str.contains (str.at lines 37) "ML distances of aa seqs.")))
(assert (< 38 (str.len lines)))
(assert (not (str.contains (str.at lines 38) "AA distances")))
(assert (not (str.contains (str.at lines 38) "ML distances of aa seqs.")))
(assert (< 39 (str.len lines)))
(assert (not (str.contains (str.at lines 39) "AA distances")))
(assert (not (str.contains (str.at lines 39) "ML distances of aa seqs.")))
(assert (< 40 (str.len lines)))
(assert (not (str.contains (str.at lines 40) "AA distances")))
(assert (not (str.contains (str.at lines 40) "ML distances of aa seqs.")))
(assert (< 41 (str.len lines)))
(assert (not (str.contains (str.at lines 41) "AA distances")))
(assert (not (str.contains (str.at lines 41) "ML distances of aa seqs.")))
(assert (< 42 (str.len lines)))
(assert (not (str.contains (str.at lines 42) "AA distances")))
(assert (not (str.contains (str.at lines 42) "ML distances of aa seqs.")))
(assert (< 43 (str.len lines)))
(assert (not (str.contains (str.at lines 43) "AA distances")))
(assert (not (str.contains (str.at lines 43) "ML distances of aa seqs.")))
(assert (< 44 (str.len lines)))
(assert (not (str.contains (str.at lines 44) "AA distances")))
(assert (not (str.contains (str.at lines 44) "ML distances of aa seqs.")))
(assert (< 45 (str.len lines)))
(assert (not (str.contains (str.at lines 45) "AA distances")))
(assert (not (str.contains (str.at lines 45) "ML distances of aa seqs.")))
(assert (< 46 (str.len lines)))
(assert (not (str.contains (str.at lines 46) "AA distances")))
(assert (not (str.contains (str.at lines 46) "ML distances of aa seqs.")))
(assert (< 47 (str.len lines)))
(assert (not (str.contains (str.at lines 47) "AA distances")))
(assert (not (str.contains (str.at lines 47) "ML distances of aa seqs.")))
(assert (< 48 (str.len lines)))
(assert (not (str.contains (str.at lines 48) "AA distances")))
(assert (not (str.contains (str.at lines 48) "ML distances of aa seqs.")))
(assert (< 49 (str.len lines)))
(assert (not (str.contains (str.at lines 49) "AA distances")))
(assert (not (str.contains (str.at lines 49) "ML distances of aa seqs.")))
(assert (< 50 (str.len lines)))
(assert (not (str.contains (str.at lines 50) "AA distances")))
(assert (not (str.contains (str.at lines 50) "ML distances of aa seqs.")))
(assert (< 51 (str.len lines)))
(assert (not (str.contains (str.at lines 51) "AA distances")))
(assert (not (str.contains (str.at lines 51) "ML distances of aa seqs.")))
(assert (< 52 (str.len lines)))
(assert (not (str.contains (str.at lines 52) "AA distances")))
(assert (not (str.contains (str.at lines 52) "ML distances of aa seqs.")))
(assert (< 53 (str.len lines)))
(assert (not (str.contains (str.at lines 53) "AA distances")))
(assert (not (str.contains (str.at lines 53) "ML distances of aa seqs.")))
(assert (< 54 (str.len lines)))
(assert (not (str.contains (str.at lines 54) "AA distances")))
(assert (not (str.contains (str.at lines 54) "ML distances of aa seqs.")))
(assert (< 55 (str.len lines)))
(assert (not (str.contains (str.at lines 55) "AA distances")))
(assert (not (str.contains (str.at lines 55) "ML distances of aa seqs.")))
(assert (< 56 (str.len lines)))
(assert (not (str.contains (str.at lines 56) "AA distances")))
(assert (not (str.contains (str.at lines 56) "ML distances of aa seqs.")))
(assert (< 57 (str.len lines)))
(assert (not (str.contains (str.at lines 57) "AA distances")))
(assert (not (str.contains (str.at lines 57) "ML distances of aa seqs.")))
(assert (< 58 (str.len lines)))
(assert (not (str.contains (str.at lines 58) "AA distances")))
(assert (not (str.contains (str.at lines 58) "ML distances of aa seqs.")))
(assert (< 59 (str.len lines)))
(assert (not (str.contains (str.at lines 59) "AA distances")))
(assert (not (str.contains (str.at lines 59) "ML distances of aa seqs.")))
(assert (< 60 (str.len lines)))
(assert (not (str.contains (str.at lines 60) "AA distances")))
(assert (not (str.contains (str.at lines 60) "ML distances of aa seqs.")))
(assert (< 61 (str.len lines)))
(assert (not (str.contains (str.at lines 61) "AA distances")))
(assert (not (str.contains (str.at lines 61) "ML distances of aa seqs.")))
(assert (< 62 (str.len lines)))
(assert (not (str.contains (str.at lines 62) "AA distances")))
(assert (not (str.contains (str.at lines 62) "ML distances of aa seqs.")))
(assert (< 63 (str.len lines)))
(assert (not (str.contains (str.at lines 63) "AA distances")))
(assert (not (str.contains (str.at lines 63) "ML distances of aa seqs.")))
(assert (< 64 (str.len lines)))
(assert (not (str.contains (str.at lines 64) "AA distances")))
(assert (not (str.contains (str.at lines 64) "ML distances of aa seqs.")))
(assert (< 65 (str.len lines)))
(assert (not (str.contains (str.at lines 65) "AA distances")))
(assert (not (str.contains (str.at lines 65) "ML distances of aa seqs.")))
(assert (< 66 (str.len lines)))
(assert (not (str.contains (str.at lines 66) "AA distances")))
(assert (not (str.contains (str.at lines 66) "ML distances of aa seqs.")))
(assert (< 67 (str.len lines)))
(assert (not (str.contains (str.at lines 67) "AA distances")))
(assert (not (str.contains (str.at lines 67) "ML distances of aa seqs.")))
(assert (< 68 (str.len lines)))
(assert (not (str.contains (str.at lines 68) "AA distances")))
(assert (not (str.contains (str.at lines 68) "ML distances of aa seqs.")))
(assert (< 69 (str.len lines)))
(assert (not (str.contains (str.at lines 69) "AA distances")))
(assert (not (str.contains (str.at lines 69) "ML distances of aa seqs.")))
(assert (< 70 (str.len lines)))
(assert (not (str.contains (str.at lines 70) "AA distances")))
(assert (not (str.contains (str.at lines 70) "ML distances of aa seqs.")))
(assert (< 71 (str.len lines)))
(assert (not (str.contains (str.at lines 71) "AA distances")))
(assert (not (str.contains (str.at lines 71) "ML distances of aa seqs.")))
(assert (< 72 (str.len lines)))
(assert (not (str.contains (str.at lines 72) "AA distances")))
(assert (not (str.contains (str.at lines 72) "ML distances of aa seqs.")))
(assert (< 73 (str.len lines)))
(assert (not (str.contains (str.at lines 73) "AA distances")))
(assert (not (str.contains (str.at lines 73) "ML distances of aa seqs.")))
(assert (< 74 (str.len lines)))
(assert (not (str.contains (str.at lines 74) "AA distances")))
(assert (not (str.contains (str.at lines 74) "ML distances of aa seqs.")))
(assert (< 75 (str.len lines)))
(assert (not (str.contains (str.at lines 75) "AA distances")))
(assert (str.contains (str.at lines 75) "ML distances of aa seqs."))
(check-sat)
(get-value (lines))
(get-value (results))
